c "source: networkx.gnm_random_graph()"
p edge 50 70
e 1 38
e 3 20
e 3 21
e 3 22
e 3 11
e 4 32
e 5 23
e 6 19
e 6 46
e 6 40
e 8 38
e 8 31
e 8 36
e 8 32
e 8 16
e 9 38
e 9 24
e 9 15
e 9 23
e 10 18
e 10 42
e 10 40
e 10 23
e 11 12
e 11 27
e 12 25
e 12 16
e 12 28
e 13 15
e 13 46
e 14 50
e 14 37
e 14 17
e 15 41
e 15 33
e 15 18
e 16 20
e 16 19
e 18 36
e 18 40
e 18 41
e 20 47
e 20 38
e 20 21
e 20 44
e 21 40
e 22 44
e 23 30
e 24 31
e 24 40
e 25 40
e 25 38
e 26 50
e 26 34
e 27 33
e 29 30
e 30 50
e 30 39
e 30 49
e 31 34
e 31 43
e 31 32
e 33 49
e 33 46
e 34 49
e 35 37
e 37 47
e 39 40
e 42 50
e 46 47
